>compound 10
>formula C4H6N3OS
>parentmass 167.012939453125
>ionization [M + Na]+
>instrumentation Unknown (LCMS)
>source file:/Users/priya/Desktop/protocode/./mzmine2.33/sirius.mgf
>index 10
>quality NoMS1Peak,LowIntensity
#filename CA_1-10.mzXML
#scans -1

>ms1merged
167.012939453125 100.0

>ms2peaks
53.939395904541016 25539.56396484375
56.965328216552734 61255.43493652344
67.9351806640625 30548.377319335938
68.96269226074219 35449.940673828125
70.94194793701172 11794.15625
71.95252227783203 26802.039184570312
83.92959594726562 74313.50500488281
84.92961883544922 19056.710205078125
84.93775939941406 132611.03369140625
84.9600601196289 4945119.76953125
85.93248748779297 14636.96484375
85.93778228759766 11201.0556640625
85.94536590576172 27328.716796875
85.96341705322266 57759.21826171875
86.95553588867188 11999.7451171875
86.9639892578125 4332.5009765625
86.97319030761719 76114.49572753906
101.94005584716797 22719.210083007812
102.94828033447266 171762.3642578125
102.9561767578125 12868.0234375
102.9700698852539 837792.5307617188
103.94823455810547 14204.182495117188
103.95628356933594 6634.427734375
103.97337341308594 6523.6220703125
104.98332214355469 7416.8310546875
109.07644653320312 5022.171875
109.98979949951172 11865.192749023438
111.96805572509766 5615.47216796875
113.96331024169922 22777.769409179688
116.97229766845703 13028.1201171875
117.93457794189453 20619.102294921875
117.95887756347656 17252.771728515625
118.94331359863281 50530.4423828125
119.94374084472656 5003.44921875
119.95121765136719 39981.38671875
120.95939636230469 22304.24072265625
120.9808349609375 243615.08837890625
124.0876235961914 94317.95861816406
124.95623016357422 14466.846557617188
125.08219146728516 11842.95751953125
125.09015655517578 5673.0966796875
125.95452880859375 27328.476440429688
125.96385192871094 299989.4825439453
125.97196197509766 14609.088745117188
125.98657989501953 190606.251953125
125.99610137939453 4312.90576171875
126.95519256591797 511390.3005371094
126.97161865234375 23503.630126953125
127.9537582397461 23879.478515625
127.96712493896484 30372.470703125
128.951416015625 24579.13232421875
131.9745635986328 6952.2076416015625
138.9915008544922 12662.346801757812
140.9514617919922 54504.777587890625
140.97547912597656 44140.295654296875
142.9667205810547 638517.02734375
143.96620178222656 286697.38671875
143.9774169921875 15673.0283203125
143.9969940185547 245350.939453125
144.96533203125 419844.318359375
145.0004425048828 4315.287109375
145.96414184570312 5559.5029296875
146.96112060546875 4749.265625
146.97463989257812 19662.25732421875
162.0081787109375 15389.0341796875
165.98414611816406 35851.980224609375
166.08543395996094 15510.983154296875
166.09718322753906 30214.049682617188
166.9536895751953 7322.981689453125
166.98439025878906 22358.252502441406
167.01304626464844 5100.18994140625
167.09292602539062 5323.4609375
167.1175079345703 21453.94091796875
167.15371704101562 21089.84765625
167.98141479492188 40615.94494628906

>ms2peaks
53.939430236816406 29239.58740234375
56.965309143066406 58234.134521484375
67.93510437011719 25243.658325195312
68.96270751953125 47734.44873046875
70.94194030761719 19668.402099609375
71.95246124267578 28235.74169921875
83.92965698242188 84664.55480957031
84.93085479736328 28494.749145507812
84.93792724609375 158032.5255126953
84.96005249023438 5079161.0390625
85.92794799804688 4902.23193359375
85.93247985839844 9479.337890625
85.9377670288086 15596.952392578125
85.94529724121094 25080.103759765625
85.9635009765625 67999.98767089844
86.95552062988281 5934.064453125
86.97319793701172 93330.72021484375
88.95285034179688 13607.56494140625
101.94015502929688 31408.2275390625
102.02123260498047 10434.392578125
102.94129943847656 5490.1728515625
102.94824981689453 199155.2781982422
102.97006225585938 870268.22265625
103.94822692871094 15393.897338867188
103.95526123046875 7383.101806640625
104.95169067382812 4422.36181640625
104.98432922363281 12571.975341796875
109.07643127441406 5874.46484375
109.98978424072266 12098.208129882812
111.9680404663086 7114.26171875
113.96348571777344 32729.544921875
115.96373748779297 17808.017578125
116.97230529785156 17900.544921875
117.93588256835938 22119.57958984375
117.95909118652344 40878.302734375
118.94326782226562 69498.984375
118.96788024902344 9873.087890625
119.95121002197266 46889.40881347656
120.95054626464844 8488.891235351562
120.95928192138672 24846.801147460938
120.98087310791016 261867.86352539062
124.08631134033203 107755.60388183594
124.95621490478516 11359.820190429688
125.07023620605469 6793.2275390625
125.0821762084961 10807.0234375
125.09014129638672 11361.9638671875
125.95451354980469 22776.693725585938
125.96395874023438 334647.4465332031
125.9719467163086 33588.2451171875
125.98657989501953 198505.7667236328
126.95526885986328 624493.9963378906
126.96346282958984 27240.104736328125
126.97160339355469 23591.085083007812
126.98925018310547 4945.10205078125
127.95387268066406 28430.421875
127.96724700927734 34486.87451171875
128.95179748535156 25017.0205078125
131.97454833984375 5694.77880859375
138.99148559570312 20270.1494140625
140.95188903808594 66214.37890625
140.9755859375 51383.05554199219
142.96682739257812 710021.0244140625
143.96633911132812 299286.28759765625
143.9757537841797 39342.263671875
143.9970703125 249265.58837890625
144.96534729003906 460450.421875
145.00042724609375 5313.927734375
145.964111328125 14497.4453125
145.975830078125 4338.70263671875
146.9611053466797 4640.673095703125
146.97293090820312 18946.48046875
150.06651306152344 5078.912109375
162.00833129882812 19243.87255859375
165.98390197753906 36863.99658203125
166.0974884033203 38263.871337890625
166.95367431640625 17396.076416015625
166.98231506347656 33617.2265625
167.01303100585938 14953.747314453125
167.11749267578125 18605.995971679688
167.15501403808594 22034.375122070312
167.98133850097656 42573.00439453125

>ms2peaks
53.939422607421875 21176.436157226562
56.96534729003906 54944.94372558594
67.93517303466797 28543.023681640625
68.96277618408203 38437.2724609375
70.94195556640625 11530.0478515625
71.95233917236328 30620.09912109375
83.9295883178711 75261.90979003906
84.93037414550781 20662.815673828125
84.93782806396484 129146.3173828125
84.96006774902344 4833883.51953125
85.93250274658203 12032.541015625
85.93778991699219 16188.0703125
85.94535064697266 21663.425537109375
85.96347045898438 50497.124755859375
86.9555435180664 7453.66650390625
86.97331237792969 76866.345703125
101.940185546875 20876.092529296875
102.94132995605469 7227.466796875
102.94825744628906 150113.61840820312
102.97005462646484 766476.091796875
103.94824981689453 14064.012451171875
103.973388671875 5528.2841796875
104.98435974121094 6380.1099853515625
109.98872375488281 6953.4552001953125
113.96302032470703 24226.080322265625
116.9723129272461 12083.1025390625
117.9345932006836 9686.576171875
117.95896911621094 21781.68359375
118.9434585571289 51278.06872558594
119.95109558105469 45983.90002441406
120.9505844116211 5495.2728271484375
120.9581527709961 17476.615234375
120.98085021972656 213354.1727294922
124.0865707397461 90833.376953125
124.95625305175781 11986.5615234375
125.08221435546875 5946.54296875
125.95454406738281 24679.614990234375
125.96389770507812 276953.8454589844
125.97197723388672 14989.582153320312
125.98654174804688 185325.05322265625
126.95525360107422 509058.9621582031
126.96349334716797 22791.1826171875
126.97164154052734 22019.370727539062
127.95303344726562 17848.787109375
127.96756744384766 24330.02880859375
128.951416015625 16405.6630859375
138.9915313720703 8717.256103515625
140.95205688476562 59708.09619140625
140.97528076171875 32151.545654296875
142.96673583984375 633889.7177734375
143.96646118164062 258031.6044921875
143.9970245361328 218037.1075439453
144.96534729003906 405009.59765625
144.9822540283203 8765.72998046875
145.9641571044922 7515.8154296875
146.9746551513672 19861.57373046875
162.00819396972656 22440.28125
165.98399353027344 24882.901245117188
166.09764099121094 28873.581665039062
166.95372009277344 8400.16845703125
166.98236083984375 21409.772094726562
167.11753845214844 18163.845947265625
167.1544189453125 19790.133666992188
167.9815216064453 28640.634155273438

>ms2peaks
53.93933868408203 38005.76416015625
56.965274810791016 48354.859375
67.93511199951172 24559.20166015625
68.94258880615234 4904.9788818359375
68.96268463134766 47916.93994140625
70.94193267822266 14032.084350585938
71.95243072509766 27877.384399414062
83.92959594726562 91779.05517578125
84.92961120605469 20765.949951171875
84.9378662109375 152438.46557617188
84.96003723144531 5100164.919921875
85.9324722290039 17994.026977539062
85.9377670288086 16797.837890625
85.9451675415039 27854.2509765625
85.96345520019531 55050.97119140625
86.94091033935547 10930.3828125
86.95552062988281 10842.17578125
86.96398162841797 5256.828125
86.97319030761719 102389.67224121094
87.94450378417969 9864.1162109375
88.95284271240234 7871.3868408203125
101.94015502929688 27361.47607421875
101.94698333740234 7009.97265625
102.02220916748047 11571.6982421875
102.9403076171875 10988.42333984375
102.94823455810547 205425.83728027344
102.95616149902344 29690.357421875
102.9700698852539 856145.0239257812
103.94219207763672 5386.18701171875
103.9482192993164 17811.871459960938
103.95526123046875 7056.1168212890625
103.97335815429688 11859.23388671875
104.98330688476562 7191.4866943359375
109.07642364501953 5114.8154296875
109.98868560791016 17461.575805664062
111.96803283691406 6073.1407470703125
113.96343994140625 34775.212890625
115.96366882324219 15887.587890625
116.97261047363281 26263.10546875
117.9357681274414 17710.36785888672
117.95915222167969 43147.2900390625
118.94332122802734 53598.59118652344
118.96788024902344 10521.2822265625
119.95128631591797 52354.121826171875
120.9518051147461 11238.87548828125
120.95811462402344 24257.71630859375
120.9808578491211 252344.73583984375
124.08653259277344 113901.00646972656
124.95621490478516 18049.72607421875
125.0715560913086 6624.3665771484375
125.0821762084961 10017.746948242188
125.09013366699219 11263.337890625
125.95316314697266 35253.90710449219
125.96399688720703 356299.7215576172
125.97193908691406 31723.19140625
125.98666381835938 194574.41772460938
126.95529174804688 664179.1140136719
126.96345520019531 21828.640014648438
126.97159576416016 26386.752563476562
127.95393371582031 37417.05969238281
127.96728515625 32653.92578125
128.95150756835938 23267.7060546875
131.97454833984375 15868.51171875
138.99148559570312 17587.095703125
140.9520721435547 54933.393310546875
140.97573852539062 56005.117919921875
142.96694946289062 732982.6982421875
142.97650146484375 5810.2021484375
143.96617126464844 295524.1943359375
143.9757537841797 48838.00927734375
143.99717712402344 257803.27197265625
144.96554565429688 546108.3305664062
145.00042724609375 6216.26025390625
145.9635467529297 22561.583984375
146.96109008789062 13155.6162109375
146.97293090820312 18575.1806640625
162.00619506835938 14877.78076171875
165.982666015625 39357.0546875
166.09803771972656 47333.99719238281
166.95455932617188 19469.025634765625
166.98231506347656 27791.579223632812
167.0130157470703 14412.1396484375
167.0928955078125 9430.9130859375
167.1174774169922 21244.22265625
167.15469360351562 31549.67333984375
167.98117065429688 45849.64270019531

>ms2peaks
53.93949508666992 20066.681396484375
56.965309143066406 54145.28918457031
67.9352798461914 12389.066040039062
68.96273040771484 33590.79296875
70.94205474853516 7050.3125
71.29361724853516 4682.5654296875
71.95184326171875 30370.248046875
83.92970275878906 42953.279052734375
84.93800354003906 72673.89721679688
84.95127868652344 27396.65234375
84.95944213867188 5813097.08984375
85.9326171875 11651.445678710938
85.93714904785156 8169.9591064453125
85.94546508789062 19366.771484375
85.96290588378906 68148.66442871094
86.95565795898438 8072.7255859375
86.97335052490234 65464.15661621094
88.95219421386719 4731.3511962890625
101.94032287597656 10409.797119140625
102.02140045166016 11017.7861328125
102.94840240478516 104790.67419433594
102.95632934570312 14094.873046875
102.97017669677734 920157.66796875
103.94839477539062 8372.3046875
103.95542907714844 4927.2481689453125
104.98348236083984 7333.2244873046875
109.9888687133789 6826.9794921875
111.96822357177734 5144.64404296875
113.96332550048828 38784.83056640625
116.97127532958984 18288.28515625
117.93475341796875 11615.7041015625
117.95905303955078 6264.4375
118.94355773925781 35168.41638183594
119.95160675048828 14591.34765625
120.97219848632812 5548.03466796875
120.9810562133789 234575.94970703125
120.9898681640625 4474.7451171875
124.08650207519531 68724.17150878906
124.95509338378906 5633.56103515625
125.07176971435547 5615.939453125
125.08238220214844 4609.4912109375
125.09034729003906 6741.42626953125
125.96426391601562 223698.87084960938
125.97215270996094 27633.280151367188
125.98554992675781 266457.2038574219
126.95542907714844 512293.7392578125
126.96366882324219 16926.615234375
126.98945617675781 4713.7890625
127.952880859375 25098.826171875
127.9674072265625 36341.501953125
128.9501953125 17875.6953125
131.97332763671875 10170.6826171875
138.99171447753906 9817.608764648438
140.95187377929688 44263.44323730469
140.97579956054688 28575.705078125
142.96702575683594 455429.669921875
143.96669006347656 166711.23950195312
143.9759979248047 22924.97119140625
143.99734497070312 272716.32763671875
144.96554565429688 316839.3469238281
145.96435546875 14685.8681640625
145.97439575195312 5706.364990234375
146.97491455078125 9477.365234375
162.00840759277344 18311.007446289062
165.98170471191406 24271.983642578125
166.09764099121094 25629.203735351562
166.95599365234375 9898.542846679688
166.9825897216797 7054.6531982421875
167.01329040527344 6230.7740478515625
167.09317016601562 5005.185546875
167.10504150390625 94655.22412109375
167.1177520751953 14451.680541992188
167.98175048828125 21771.62353515625
168.0767822265625 8476.604064941406
168.11192321777344 6978.572265625
168.13880920410156 58292.90576171875

>ms2peaks
53.93954849243164 26675.424072265625
56.965293884277344 51320.451171875
67.9351577758789 24643.375915527344
68.96268463134766 40496.9443359375
70.94194793701172 12244.982177734375
71.95244598388672 29223.6474609375
83.92964172363281 89894.23400878906
84.93036651611328 21181.695922851562
84.93788146972656 161988.6689453125
84.9600601196289 5166514.65234375
85.93248748779297 18830.295776367188
85.93777465820312 13380.9833984375
85.94525909423828 30227.01885986328
85.96343231201172 71498.2802734375
86.94091796875 5013.7158203125
86.95552825927734 13284.1259765625
86.96475982666016 4640.9833984375
86.97320556640625 85349.88830566406
88.95206451416016 8724.24169921875
101.94026947021484 29867.926513671875
101.9469985961914 6511.15576171875
102.02222442626953 10428.255859375
102.94131469726562 10030.65771484375
102.94832611083984 187970.49780273438
102.9561767578125 16775.345703125
102.95915222167969 4534.65869140625
102.9700698852539 839064.31640625
103.94823455810547 11780.911865234375
103.95527648925781 6650.0513916015625
103.97337341308594 6892.6622314453125
104.95170593261719 6932.07763671875
104.98332214355469 5725.1800537109375
109.98870849609375 13480.390625
111.96805572509766 12396.9208984375
113.96320343017578 35194.364013671875
115.96369171142578 11654.416015625
116.97229766845703 6649.11083984375
117.93457794189453 22112.340087890625
117.95861053466797 25174.875
118.94305419921875 55775.65563964844
118.9678955078125 5976.27294921875
119.94374084472656 7865.658447265625
119.95121765136719 50853.53161621094
120.9505615234375 7852.02392578125
120.95939636230469 26032.705688476562
120.98085021972656 236887.1778564453
124.08649444580078 98428.08764648438
124.95623016357422 7442.580810546875
125.07157897949219 7980.724365234375
125.08219146728516 7917.0343017578125
125.95452880859375 26982.563842773438
125.96398162841797 337726.2255859375
125.97196197509766 31118.125244140625
125.98661804199219 202271.9044189453
126.9552993774414 563052.453125
126.9634780883789 22495.9609375
126.97161865234375 19392.01611328125
126.98926544189453 5879.2734375
127.95388793945312 35298.2890625
127.96733856201172 30104.666625976562
128.9517364501953 26798.10205078125
131.9745635986328 8064.8468017578125
138.9915771484375 10281.880859375
140.95191955566406 64506.0546875
140.97552490234375 45535.236328125
142.96685791015625 718726.4326171875
143.96652221679688 331640.3828125
143.9971160888672 235361.88940429688
144.9654541015625 461879.7412109375
145.96414184570312 11769.7666015625
146.97463989257812 19871.83837890625
162.0081787109375 18332.01611328125
165.98355102539062 37175.794921875
166.09750366210938 35887.95007324219
166.9536895751953 10829.912109375
166.9823455810547 20498.644653320312
167.01304626464844 4878.302734375
167.09292602539062 7243.5947265625
167.1175079345703 17089.668701171875
167.15440368652344 19894.57177734375
167.9810333251953 39704.58642578125

>ms2peaks
53.93952560424805 30170.923828125
56.96529769897461 52626.0791015625
67.93540954589844 24861.767944335938
68.96269989013672 36259.93359375
70.94194030761719 13028.2919921875
71.95252227783203 26764.077392578125
83.92961883544922 82074.90393066406
84.9308090209961 27932.663940429688
84.93771362304688 125690.01098632812
84.9600601196289 5130295.67578125
85.93247985839844 12713.828125
85.9377670288086 6603.312683105469
85.94537353515625 24847.7236328125
85.96271514892578 71215.9677734375
86.94091033935547 4905.83984375
86.95552062988281 10220.740234375
86.97327423095703 90428.87731933594
101.94015502929688 29408.25048828125
101.94699096679688 9221.310913085938
102.02220916748047 9157.9951171875
102.94831085205078 203191.47241210938
102.97006225585938 910943.37109375
103.94822692871094 20014.932861328125
103.95526123046875 14209.220336914062
104.98331451416016 8103.85986328125
109.07643127441406 5283.76171875
109.98869323730469 16755.85302734375
111.9680404663086 7055.9527587890625
113.96329498291016 27045.749633789062
115.96367645263672 13665.1064453125
116.97254943847656 18123.515625
117.93577575683594 19012.295166015625
117.9588851928711 36050.41442871094
118.94319152832031 60325.92053222656
118.96788024902344 10715.474609375
119.9437255859375 6675.366943359375
119.95091247558594 45012.322998046875
120.95181274414062 4987.6953125
120.95853424072266 29571.4443359375
120.98087310791016 272211.95068359375
123.96581268310547 4746.1180419921875
124.08635711669922 102230.3720703125
124.95621490478516 7695.7803955078125
125.07156372070312 6205.2591552734375
125.0821762084961 9772.56640625
125.09014129638672 9852.9638671875
125.95451354980469 30055.345458984375
125.96394348144531 363041.83337402344
125.9719467163086 27293.355102539062
125.98665618896484 214249.9345703125
126.95526885986328 628309.2136230469
126.96346282958984 24983.670654296875
126.97160339355469 21818.2099609375
126.98925018310547 5567.1123046875
127.95376586914062 27534.2265625
127.96720886230469 35367.6064453125
128.95147705078125 26263.71435546875
131.97454833984375 12396.613037109375
135.9703826904297 11148.1435546875
138.99148559570312 17521.42919921875
140.9517822265625 59456.5712890625
140.97543334960938 44392.02490234375
142.9668426513672 728993.3779296875
143.96633911132812 316009.71923828125
143.99713134765625 238328.7247314453
144.96534729003906 492677.58544921875
144.99876403808594 5569.8572998046875
145.964111328125 14402.1533203125
146.9611053466797 5498.73388671875
146.97462463378906 21302.444213867188
162.00619506835938 17663.9345703125
165.98377990722656 43534.433349609375
166.09747314453125 38573.748779296875
166.95367431640625 15326.44677734375
166.984375 35006.15283203125
167.01303100585938 5233.8309326171875
167.0928955078125 6052.6278076171875
167.11749267578125 18471.103149414062
167.15411376953125 24204.689453125
167.9808349609375 33092.538818359375

>ms2peaks
51.940574645996094 5821.86279296875
53.939476013183594 42178.43701171875
56.965309143066406 55383.85498046875
67.93513488769531 21599.115234375
68.96268463134766 49653.931396484375
70.9419174194336 15182.044555664062
71.9524154663086 30036.288330078125
72.93724822998047 5387.35888671875
83.9295654296875 89020.09399414062
84.93032836914062 22001.14501953125
84.93770599365234 156845.07385253906
84.96001434326172 5210348.90234375
85.92791748046875 4800.8173828125
85.93245697021484 14711.716796875
85.937744140625 14738.554931640625
85.94525146484375 35219.152587890625
85.96339416503906 66886.34448242188
86.941650390625 4773.66162109375
86.95549774169922 12098.310546875
86.96472930908203 5920.494140625
86.9732437133789 127322.12365722656
87.9444808959961 5111.68798828125
88.95281982421875 12118.353759765625
88.96874237060547 5764.02734375
101.94023895263672 26114.55517578125
102.02217864990234 11067.376953125
102.94127655029297 9016.1669921875
102.94821166992188 208156.76013183594
102.95613861083984 33360.359375
102.97003173828125 836011.9047851562
103.94316864013672 4731.11083984375
103.94819641113281 21938.80078125
103.95623779296875 14696.212036132812
103.97332763671875 7090.9989013671875
104.98328399658203 15790.86865234375
105.95518493652344 6062.840576171875
109.98866271972656 17197.921997070312
111.96800994873047 14503.506225585938
113.96326446533203 47132.63708496094
115.9639892578125 21176.138671875
116.97251892089844 27098.681640625
117.93574523925781 17348.900634765625
117.96011352539062 37794.015625
118.94310760498047 62558.53869628906
118.96784973144531 6701.56640625
119.94369506835938 6706.36083984375
119.95116424560547 52982.03125
120.95177459716797 6663.35791015625
120.9594955444336 29883.877807617188
120.98082733154297 235253.57495117188
124.08637237548828 91682.78039550781
124.95618438720703 22646.785400390625
125.07152557373047 7867.16748046875
125.08214569091797 6170.19482421875
125.09010314941406 10080.36328125
125.95447540283203 30970.230590820312
125.96390533447266 372175.01123046875
125.97190856933594 39403.99279785156
125.98663330078125 238359.97583007812
126.95526885986328 825319.4946289062
126.96342468261719 19926.197265625
126.97156524658203 23141.7021484375
127.95440673828125 37052.86328125
127.96678924560547 35972.66052246094
128.9516143798828 35537.14892578125
131.97451782226562 21049.23974609375
133.9743194580078 5156.435546875
135.97035217285156 6624.2216796875
138.991455078125 10826.22900390625
140.95196533203125 67445.38586425781
140.9755401611328 60919.18505859375
142.96682739257812 766011.6455078125
143.96627807617188 329987.93359375
143.97572326660156 33541.7890625
143.9970703125 246098.857421875
144.9654083251953 615448.5952148438
145.00038146972656 11188.728515625
145.96408081054688 19129.203125
146.9610595703125 15689.154663085938
146.97288513183594 12853.39208984375
162.0081024169922 19527.84619140625
165.9816131591797 36510.911376953125
166.09815979003906 27805.341186523438
166.95362854003906 14628.271484375
166.98226928710938 44708.385498046875
167.0129852294922 5764.8743896484375
167.11744689941406 20146.925048828125
167.15457153320312 45396.22119140625
167.9812469482422 61133.93615722656

