>compound 60
>formula C9H8O
>parentmass 133.06415557861328
>ionization [M + H]+
>instrumentation Unknown (LCMS)
>source file:/Users/priya/Desktop/protocode/./mzmine2.33/sirius.mgf
>index 60
>quality NoMS1Peak,LowIntensity
#filename END_1-10.mzXML
#scans -1

>ms1merged
133.06415557861328 3.8169472E7
134.06845092773438 3580664.25

>ms2peaks
51.02334213256836 1267.3953857421875
53.03886413574219 1776.511474609375
55.015621185302734 1430.107421875
55.018394470214844 34024.828125
56.96525573730469 7933.26171875
58.032596588134766 1048.0819091796875
64.92761993408203 12473.091552734375
68.00316619873047 1045.2545166015625
75.8412857055664 1131.2628173828125
77.0386962890625 2723.939208984375
79.05416107177734 75025.06799316406
80.05763244628906 2731.32666015625
91.05448150634766 24843.455810546875
92.05814361572266 2422.75048828125
94.04090118408203 1141.9110107421875
95.04888153076172 9566.2783203125
100.01714324951172 4505.91650390625
103.05427551269531 45804.58679199219
104.05684661865234 2604.39794921875
104.0628890991211 1738.3406982421875
105.07006072998047 1172218.5537109375
106.07317352294922 104514.63330078125
107.04879760742188 103266.58129882812
108.07939147949219 1158.1756591796875
115.0545654296875 33466.94921875
116.05726623535156 2449.21875
123.96446990966797 7498.9222412109375
131.0489501953125 23886.748046875
132.05731201171875 44886.85546875
132.08961486816406 13618.0498046875
133.04806518554688 15079.548828125
133.06410217285156 3296874.130859375
134.0684051513672 460514.9970703125
135.0709228515625 3975.264404296875
135.0797882080078 38732.421875
154.29689025878906 1285.2391357421875

