>compound 4
>formula C2H2N4P2
>parentmass 144.9820546468099
>ionization [M + H]+
>instrumentation Unknown (LCMS)
>source file:/Users/priya/Desktop/protocode/./mzmine2.33/sirius.mgf
>index 4
>quality NoMS1Peak,LowIntensity,PoorlyExplained,PoorlyExplained
#filename CLA_1-2.mzXML
#scans -1

>ms1merged
144.9820546468099 100.0

>ms2peaks
60.081077575683594 27535.85009765625
60.95802688598633 1282.4207763671875
61.92835235595703 22408.376953125
62.929569244384766 432422.126953125
63.927589416503906 23440.884765625
64.92771911621094 63170.730712890625
73.02848052978516 2413.474853515625
74.09668731689453 1243.8115234375
80.93978881835938 24812.37744140625
81.01420593261719 9537.078125
84.08094024658203 1068.99755859375
84.95947265625 1633.49072265625
86.09607696533203 2787.0697021484375
87.04420471191406 54253.73876953125
90.01927947998047 9344.9599609375
91.05455780029297 1076.5179443359375
98.09669494628906 1348.1531982421875
100.11229705810547 1898.4957275390625
102.95455169677734 6061.427734375
103.05451965332031 1458.92236328125
103.95539855957031 232670.1962890625
103.96248626708984 1618.3780517578125
104.95372772216797 7668.8369140625
105.07028198242188 1236.9356689453125
105.95325469970703 38974.6298828125
117.06975555419922 5059.20361328125
118.96687316894531 1942.70703125
120.96465301513672 111839.375
121.96648406982422 2613492.140625
122.0188980102539 3392.30615234375
122.96371459960938 116403.25695800781
123.96469116210938 421032.404296875
131.9618682861328 13705.339721679688
143.9808807373047 13690.4169921875
144.0563507080078 4619.5732421875
144.0811004638672 31376.615234375
144.10243225097656 15611.807495117188
144.9824676513672 287621.90234375
145.03878784179688 1189.554443359375
145.05038452148438 1032.5052490234375
145.07411193847656 11934.058227539062
145.08518981933594 1752.1834716796875
145.10154724121094 14356.733276367188
145.9802703857422 11164.15625
146.05978393554688 60580.884765625
146.07150268554688 14150.754028320312
146.09326171875 6047.7730712890625
146.10499572753906 1925.1693115234375
146.11672973632812 75984.8173828125
146.98001098632812 46000.08447265625
147.04420471191406 1236.3431396484375
147.0543670654297 1104.48828125
152.95530700683594 15345.849609375
153.95782470703125 1670.2374267578125
154.95382690429688 19815.130859375

>ms2peaks
60.080997467041016 8341.8251953125
62.92960739135742 331629.20751953125
64.92774200439453 47560.85498046875
80.9401626586914 13851.53466796875
87.04422760009766 24530.358642578125
103.9554443359375 176569.443359375
105.95331573486328 25610.142578125
121.96652221679688 2013029.9375
122.96957397460938 44325.49072265625
123.9647445678711 347112.78515625
131.9618682861328 6069.3984375
144.08067321777344 17008.388427734375
144.98260498046875 200895.056640625
145.0748748779297 7839.40380859375
145.10140991210938 18386.501708984375
146.059814453125 28342.342529296875
146.11654663085938 48016.30712890625
146.9799346923828 33695.93420410156

