>compound 55
>formula C9H8O
>parentmass 133.06434631347656
>ionization [M + H]+
>instrumentation Unknown (LCMS)
>source file:/Users/priya/Desktop/protocode/./mzmine2.33/sirius.mgf
>index 55
>quality NoMS1Peak,FewPeaks,LowIntensity
#filename ENL_1-10.mzXML
#scans -1

>ms1merged
133.06434631347656 2.3371434E7
134.0684814453125 2325050.25

>ms2peaks
53.03891372680664 1118.58984375
55.018428802490234 8075.2236328125
64.92761993408203 5801.89599609375
79.05426025390625 21478.27685546875
91.05445098876953 4319.30126953125
91.92767333984375 1503.3092041015625
92.90013885498047 3250.997802734375
103.05427551269531 10610.3671875
105.07013702392578 254684.31640625
106.06605529785156 3272.068359375
106.07319641113281 24193.310913085938
115.0546875 5988.21875
123.9646224975586 5786.3858642578125
131.04908752441406 3744.915771484375
132.056640625 1862.6884765625
133.06419372558594 733122.25390625
134.05982971191406 8908.724609375
134.06838989257812 126071.7109375
135.04425048828125 1043.1085205078125
137.0232391357422 1189.7489013671875

