>compound 49
>formula C9H8O2
>parentmass 149.06006806472251
>ionization [M + H]+
>instrumentation Unknown (LCMS)
>source file:/Users/priya/Desktop/protocode/./mzmine2.33/sirius.mgf
>index 49
>quality NoMS1Peak,LowIntensity
#filename bMCA_1-10.mzXML
#scans -1

>ms1merged
149.06006806472251 100.0

>ms2peaks
50.015567779541016 10520.294921875
51.02332305908203 20951.5859375
53.03890609741211 105706.3203125
55.018310546875 13226.890625
60.17636489868164 11357.1923828125
77.0381088256836 160220.796875
77.98107147216797 20496.71875
78.3586654663086 11344.8408203125
81.03397369384766 27156.16796875
94.8373794555664 11576.580078125
95.0488052368164 339992.1875
105.03329467773438 2.9174813951171875E7
106.03692626953125 2563090.7397460938
107.03927612304688 22554.029296875
141.16297912597656 15452.08203125
149.06019592285156 3.2978366451171875E7
150.06298828125 4132165.491455078
151.06517028808594 111360.515625
161.20130920410156 13784.703125

