>compound 53
>formula C10H10O2
>parentmass 163.07525634765625
>ionization [M + H]+
>instrumentation Unknown (LCMS)
>source file:/Users/priya/Desktop/protocode/./mzmine2.33/sirius.mgf
>index 53
>quality NoMS1Peak,LowIntensity
#filename CA_1-10.mzXML
#scans -1

>ms1merged
163.07525634765625 2.728134E7
164.07928466796875 2895700.0

>ms2peaks
50.01556396484375 4105.6875
50.43998336791992 2579.485595703125
51.023319244384766 14371.2626953125
52.79239273071289 2934.34912109375
53.002586364746094 8071.19384765625
53.038963317871094 35057.8359375
54.04247283935547 4484.2421875
54.4769287109375 3480.900634765625
55.018306732177734 5569.11083984375
75.46427154541016 3793.82421875
77.0383529663086 50053.4921875
78.0425033569336 3244.5986328125
79.05474853515625 3880.8134765625
81.03327178955078 18235.919921875
84.24183654785156 4073.464111328125
91.05430603027344 128315.2421875
92.05726623535156 8470.8173828125
95.04882049560547 136586.5
96.0525894165039 5812.02294921875
105.02201080322266 56481.2734375
105.0333023071289 1.6248228E7
106.03691864013672 1435591.375
107.03821563720703 7662.45947265625
113.96318817138672 12882.5537109375
120.10078430175781 3913.644287109375
123.0439224243164 15026.1376953125
135.0440673828125 24055.6875
141.1629638671875 15815.7822265625
145.06492614746094 7471.12060546875
163.07546997070312 3782430.0
163.10299682617188 16787.87109375
164.07957458496094 501242.21875
164.143310546875 13148.7666015625
165.08084106445312 6714.88916015625

>ms2peaks
50.01555252075195 5869.40380859375
51.021575927734375 2814.1083984375
51.023651123046875 16770.638671875
53.0025749206543 3474.205078125
53.039222717285156 37060.01953125
54.04246139526367 6401.6572265625
55.01829528808594 3565.627685546875
72.64736938476562 2634.62548828125
73.25135803222656 3009.04345703125
74.18731689453125 2844.900390625
77.03831481933594 53976.984375
79.05473327636719 4891.771484375
81.03394317626953 14189.732421875
91.05436706542969 119721.19982910156
92.05724334716797 6774.677734375
95.04879760742188 123542.0546875
96.05256652832031 5351.04296875
105.02198791503906 109905.6171875
105.033203125 1.3536572246582031E7
106.03682708740234 1230207.625
107.03923797607422 8159.888671875
113.96431732177734 16948.10546875
117.06942749023438 4098.7958984375
123.04389953613281 4249.1513671875
131.9744110107422 5291.50146484375
135.0435333251953 23210.6015625
140.97238159179688 27200.3681640625
141.16293334960938 12313.455078125
145.0648956298828 6539.94140625
163.07522583007812 3391330.982055664
164.07931518554688 448952.4084472656
164.11582946777344 13961.5439453125
164.12957763671875 27365.65283203125
164.14353942871094 17169.727172851562
165.05465698242188 3630.1796875
165.08079528808594 3277.590087890625

