>compound 9
>formula C4H8N2O
>parentmass 101.07107543945312
>ionization [M + H]+
>instrumentation Unknown (LCMS)
>source file:/Users/priya/Desktop/protocode/./mzmine2.33/sirius.mgf
>index 9
>quality NoMS1Peak,LowIntensity
#filename Ellaidic_acid_1-2.mzXML
#scans -1

>ms1merged
101.07107543945312 6.0147784E7
102.07394027709961 2622710.5

>ms2peaks
54.430965423583984 1204.570068359375
55.05487060546875 1419.7965087890625
56.050018310546875 2583.549072265625
56.96504592895508 53146.7734375
57.07041931152344 87342.2822265625
58.0655403137207 86026.2080078125
58.07343292236328 3620.794677734375
58.50482940673828 2468.989501953125
58.82490539550781 1304.35400390625
59.06060028076172 583189.3306884766
59.06313705444336 3902.166748046875
59.06399917602539 3313.16064453125
59.9306640625 1332.7789306640625
60.04486083984375 181796.67626953125
60.05583953857422 7730.48046875
60.06422805786133 16149.31298828125
61.04798126220703 2639.305419921875
65.39569091796875 1448.0498046875
67.51034545898438 12451.1171875
67.78153228759766 1416.0721435546875
70.01275634765625 2949.207763671875
72.08122253417969 2710.60205078125
74.0604248046875 7037.92236328125
74.09671783447266 10478.2900390625
76.51500701904297 5772.28564453125
79.01834869384766 26487.0625
80.12105560302734 1292.5294189453125
83.04918670654297 1299.420654296875
84.0444107055664 1925.395751953125
88.02284240722656 18534.240234375
100.07522583007812 35319.754150390625
100.1123275756836 161888.03125
100.11898040771484 1992.8870849609375
101.07108306884766 31925.486572265625
101.10787200927734 21475.284301757812
101.11558532714844 32339.451904296875
102.09088897705078 64682.5498046875
102.1280517578125 93783.275390625
121.62484741210938 1666.037109375

>ms2peaks
57.070472717285156 69162.9013671875
58.06549072265625 68782.93603515625
59.06062316894531 925652.6823730469
60.04486846923828 270146.1650390625
100.11234283447266 122685.8037109375
101.07112121582031 48161.36865234375
101.10692596435547 47363.09436035156
101.11463928222656 14223.48828125
102.09090423583984 104526.65368652344
102.128173828125 141013.05712890625

>ms2peaks
58.06538772583008 3216.612060546875
59.057899475097656 1062.198486328125
59.06097412109375 27749.88671875
60.044795989990234 4921.837890625
100.07611083984375 10781.744140625
100.1122055053711 1521.787353515625
101.07111358642578 1392.8995361328125
101.10774993896484 1209.9697265625
102.0918197631836 11966.294921875
102.12787628173828 6374.66552734375

>ms2peaks
57.07036209106445 60091.50244140625
58.06547164916992 62452.94384765625
58.07342529296875 1197.7064208984375
59.060970306396484 529810.5444335938
60.04474639892578 81918.71826171875
60.064144134521484 13159.696899414062
60.081443786621094 3871.951171875
74.0967025756836 12762.397827148438
83.08580017089844 3628.9400634765625
100.0752944946289 50910.612060546875
100.1121826171875 114984.1640625
101.0711898803711 28033.584594726562
101.10786437988281 19181.884033203125
101.1155776977539 19417.575805664062
102.09088897705078 76574.6982421875
102.12792205810547 95627.3212890625

