>compound 40
>formula C10H18N2O
>parentmass 183.14892578125
>ionization [M + H]+
>instrumentation Unknown (LCMS)
>source file:/Users/priya/Desktop/protocode/./mzmine2.33/sirius.mgf
>index 40
>quality NoMS1Peak,LowIntensity
#filename CA_1-10.mzXML
#scans -1

>ms1merged
183.14892578125 2.2177888E8
184.15243530273438 2.4537592E7

>ms2peaks
57.07026290893555 56934.390625
62.92896270751953 9001.9248046875
64.63827514648438 7721.51220703125
66.45671081542969 8171.3564453125
70.2064208984375 8041.1611328125
71.0248031616211 9562.80078125
71.86277770996094 7827.36962890625
72.08114624023438 632738.0625
73.27288818359375 7957.3515625
73.94920349121094 7857.791015625
84.96011352539062 19697.24609375
88.21821594238281 9352.2392578125
113.96334838867188 33883.06640625
118.96795654296875 42368.0703125
129.7230682373047 9369.9228515625
156.13868713378906 41241.546875
160.9765625 19509.1015625
163.7532196044922 9754.04296875
187.50901794433594 9046.2978515625

