>compound 2
>formula C3H6NO4P2
>parentmass 182.98443603515625
>ionization [M + H]+
>instrumentation Unknown (LCMS)
>source file:/Users/priya/Desktop/protocode/./mzmine2.33/sirius.mgf
>index 2
>quality NoMS1Peak,LowIntensity
#filename CLA_1-2.mzXML
#scans -1

>ms1merged
182.98443603515625 100.0

>ms2peaks
56.4307746887207 8255.490234375
56.942466735839844 38696.8671875
57.93505859375 40337.6484375
59.930641174316406 510229.84375
60.93086624145508 13360.2568359375
60.95794677734375 9158.0419921875
61.92822265625 11518.62109375
62.92942428588867 124100.13159179688
67.9351806640625 15314.82421875
72.9373779296875 256703.8447265625
77.94132995605469 55787.80078125
86.04066467285156 8946.19921875
88.93220520019531 20024.76171875
90.9473876953125 63335.5615234375
93.16056823730469 8444.79296875
94.65379333496094 9435.94140625
98.96113586425781 13401.875
99.96505737304688 10945.4453125
100.95640563964844 755107.3344726562
101.12506103515625 18271.1328125
101.95777893066406 40824.546875
102.1465072631836 8265.4580078125
102.95423126220703 43992.86328125
106.94281768798828 8753.8427734375
111.98382568359375 40552.85595703125
113.9634017944336 627433.328125
113.97024536132812 9180.84375
114.93537139892578 10695.7314453125
115.96372985839844 49579.69140625
116.972412109375 387774.46875
117.9749755859375 116150.0
118.96795654296875 8377457.212036133
119.96825408935547 435770.78125
120.96459197998047 432339.826171875
120.97205352783203 12912.400390625
128.96255493164062 58139.31640625
130.96800231933594 9772.0419921875
131.9747314453125 172719.92907714844
132.9463348388672 17091.859375
139.98895263671875 66414.6875
140.9517059326172 123453.31591796875
140.99249267578125 75538.0546875
141.96070861816406 165112.82067871094
141.9829559326172 2764170.9123535156
142.38491821289062 9822.3037109375
142.98483276367188 224629.515625
143.98037719726562 152995.25
146.9746856689453 14302.1474609375
148.96197509765625 15766.4423828125
148.9774932861328 22629.203125
150.9580535888672 436845.9167480469
151.95877075195312 18147.7734375
152.95509338378906 15667.43359375
159.969970703125 140739.79931640625
160.97677612304688 369028.6005859375
173.97293090820312 162521.515625
174.97438049316406 16152.54296875

>ms2peaks
56.942535400390625 8852.670654296875
57.93512725830078 26118.673828125
59.93069076538086 303729.708984375
60.930938720703125 7626.51318359375
60.9580192565918 40294.3291015625
72.93745422363281 135128.94213867188
77.94056701660156 44535.078125
88.93151092529297 8565.0849609375
90.94750213623047 43897.50036621094
98.96111297607422 37414.25
99.96517181396484 19160.787109375
100.95652770996094 571768.6041259766
101.95008850097656 14097.533813476562
101.95692443847656 9775.3466796875
101.98426818847656 14879.50634765625
102.95435333251953 9719.091552734375
111.98396301269531 15981.66064453125
113.96346282958984 325046.39013671875
116.97129821777344 416107.03942871094
117.96878051757812 17115.705078125
117.97511291503906 172144.828125
118.95331573486328 34178.44140625
118.9668960571289 6334580.136108398
119.9671401977539 309661.904296875
120.96463775634766 231921.015625
120.97346496582031 9191.013916015625
128.96267700195312 63769.4140625
130.96673583984375 14744.47314453125
131.97491455078125 99692.76733398438
139.98724365234375 88496.734375
140.95028686523438 93588.96643066406
140.99224853515625 133175.109375
141.96044921875 115363.87524414062
141.98309326171875 2366336.928466797
142.98507690429688 193555.70629882812
143.9812774658203 80645.599609375
146.97317504882812 8103.931701660156
148.962158203125 19222.439453125
148.97767639160156 24853.452270507812
150.95655822753906 398920.39978027344
151.95895385742188 23303.48974609375
152.9552764892578 13118.95263671875
159.96868896484375 92504.08935546875
160.9774627685547 36620.25830078125
172.38885498046875 9403.095703125
173.97328186035156 156507.46533203125
184.11233520507812 7749.781982421875

