>compound 26
>formula C11H15NO2
>parentmass 194.11788940429688
>ionization [M + H]+
>instrumentation Unknown (LCMS)
>source file:/Users/priya/Desktop/protocode/./mzmine2.33/sirius.mgf
>index 26
>quality NoMS1Peak,LowIntensity,PoorlyExplained
#filename CA_1-10.mzXML
#scans -1

>ms1merged
194.11788940429688 100.0

>ms2peaks
58.06574630737305 1897375.77734375
59.07332992553711 73462.34564208984
70.94190216064453 166643.537109375
70.95825958251953 141098.48693847656
71.9297866821289 24544.068359375
71.95233917236328 1945685.6954345703
72.93721771240234 1961097.5251464844
88.95281982421875 39046.16076660156
88.96874237060547 33824.393798828125
89.96241760253906 46448.40966796875
90.94804382324219 545633.7984619141
96.96092987060547 10258.874389648438
107.04874420166016 303838.1643066406
108.9583969116211 74570.79467773438
111.96800231933594 1128690.0185546875
111.98470306396484 306005.9890136719
112.96688079833984 159194.19860839844
112.97828674316406 678988.7739257812
112.98632049560547 8090.735595703125
113.9632339477539 1.434702880859375E7
115.96837615966797 12412.118896484375
116.96728515625 287228.2950439453
129.97836303710938 608878.8833007812
129.99525451660156 84224.94384765625
130.9678955078125 192088.68408203125
130.97799682617188 90431.16479492188
130.98916625976562 1038659.5638427734
131.9744873046875 8822877.573242188
133.97872924804688 13698.987915039062
135.0441131591797 6317736.53125
135.11676025390625 25093.161376953125
136.04733276367188 601288.4141845703
137.09634399414062 76415.37634277344
147.98878479003906 23942.578491210938
148.9773406982422 412111.72229003906
148.9894561767578 14262.419189453125
148.99981689453125 74043.81201171875
149.01373291015625 4450.047607421875
149.98468017578125 668250.4123535156
152.9944610595703 80794.22570800781
154.0045623779297 78890.22705078125
154.99000549316406 1479286.2142333984
155.99423217773438 7192.107177734375
171.00572204589844 44820.65197753906
171.99203491210938 28481.856323242188
172.987060546875 2960.819091796875
172.99993896484375 1004868.5084228516
194.11793518066406 1.0897664578125E7
195.0371856689453 28552.243041992188
195.08642578125 115520.83666992188
195.12022399902344 1513304.423828125
195.148193359375 36172.58239746094
195.18443298339844 3007469.9329833984
196.017333984375 10631.65185546875
196.09559631347656 42357.224609375
196.18946838378906 96491.59423828125

