>compound 13
>formula C6H4N2OS2
>parentmass 184.98460388183594
>ionization [M + H]+
>instrumentation Unknown (LCMS)
>source file:/Users/priya/Desktop/protocode/./mzmine2.33/sirius.mgf
>index 13
>quality NoMS1Peak,LowIntensity
#filename Ellaidic_acid_1-2.mzXML
#scans -1

>ms1merged
184.98460388183594 100.0

>ms2peaks
51.45344924926758 1816.2470703125
52.080162048339844 1631.584228515625
59.930660247802734 8672.5947265625
60.930965423583984 3931.040283203125
60.95804214477539 4401.10693359375
61.925086975097656 2325.954833984375
61.928382873535156 43852.984375
72.79700469970703 1795.5570068359375
79.9383773803711 4724.373046875
84.95957946777344 15783.9072265625
90.94754028320312 1832.8907470703125
100.9566421508789 8765.3134765625
101.3813247680664 1945.1209716796875
101.95697021484375 4347.68310546875
102.95417785644531 63857.5
104.95394897460938 3324.168212890625
105.62413787841797 2231.9189453125
114.95543670654297 3376.40283203125
115.96392059326172 3150.64111328125
116.97132873535156 4558.79736328125
118.95829010009766 2048.90771484375
118.9669189453125 139064.5625
119.96723175048828 112496.7890625
120.96468353271484 954164.5
121.96784210205078 23375.1015625
122.96399688720703 76046.2734375
126.0916519165039 3278.355712890625
130.95968627929688 2989.57763671875
132.9669189453125 3109.56005859375
141.98304748535156 32489.650390625
142.98497009277344 66651.0
143.9808807373047 341137.375
144.9841766357422 14057.6572265625
145.98129272460938 28370.94921875
150.95655822753906 10679.9306640625
151.95724487304688 12094.1513671875
152.95526123046875 79059.1640625
154.95382690429688 7651.19970703125
162.97511291503906 3927.33984375
164.16372680664062 2266.285888671875
174.97467041015625 4263.54931640625
175.97149658203125 26911.779296875
186.10226440429688 2594.360595703125
186.12875366210938 3280.65234375
186.1841583251953 10025.1962890625
186.2227325439453 9830.63671875

>ms2peaks
52.75834655761719 1393.9918212890625
59.93064498901367 10438.3642578125
60.25896072387695 1669.4715576171875
60.93095397949219 10685.4130859375
60.958030700683594 9804.2880859375
61.92836380004883 44559.75390625
79.9383544921875 7320.78271484375
82.61370086669922 1506.669921875
84.9596176147461 14035.5380859375
100.95661926269531 7366.404296875
101.95791625976562 8137.5625
101.98331451416016 2130.4814453125
102.95423889160156 64271.84765625
104.95392608642578 2418.031494140625
113.67094421386719 2055.669677734375
114.95658111572266 2622.62060546875
116.97250366210938 3866.73095703125
118.96692657470703 120948.4375
118.97672271728516 1838.890869140625
119.95516967773438 2177.38623046875
119.96726989746094 121030.671875
120.96466064453125 842929.75
121.96800994873047 24139.673828125
122.96407318115234 70930.5703125
130.95965576171875 2423.96142578125
132.96688842773438 2897.356201171875
141.9829559326172 25208.14453125
142.98504638671875 57910.10546875
143.98086547851562 315378.875
144.98455810546875 16614.263671875
145.9808807373047 27433.818359375
150.95652770996094 11086.5234375
151.9591827392578 16196.609375
152.95530700683594 74842.1484375
154.9537811279297 8916.109375
160.9767608642578 2451.3564453125
162.97506713867188 2413.983642578125
174.97463989257812 3033.800537109375
175.9710693359375 21904.39453125
177.9719696044922 2705.33154296875
185.10687255859375 2542.0927734375
186.1287078857422 3786.178955078125
186.1841278076172 3721.400390625
186.22268676757812 9399.638671875

